Pt 
 1.0000000000000000
    27.8399999999999999    0.0000000000000000    0.0000000000000000
     0.0000000000000000   27.8399999999999999    0.0000000000000000
     0.0000000000000000    0.0000000000000000   27.8399999999999999
  19
Cartesian
 11.9600000000000009 11.9600000000000009 13.920000000000001 T T T
 11.9600000000000009 13.9200000000000017 11.960000000000000 T T T
 10.0000000000000018 13.9200000000000017 13.920000000000001 T T T
 11.9600000000000009 13.9200000000000017 15.880000000000002 T T T
 11.9600000000000009 15.8800000000000026 13.920000000000001 T T T
 13.9200000000000017 11.9600000000000009 11.960000000000000 T T T
 13.9200000000000017 10.0000000000000018 13.920000000000001 T T T
 13.9200000000000017 11.9600000000000009 15.880000000000002 T T T
 15.8800000000000026 11.9600000000000009 13.920000000000001 T T T
 13.9200000000000017 13.9200000000000017 10.000000000000001 T T T
 13.9200000000000017 15.8800000000000026 11.960000000000000 T T T
 15.8800000000000026 13.9200000000000017 11.960000000000000 T T T
 13.9200000000000017 13.9200000000000017 13.920000000000001 T T T
 13.9200000000000017 15.8800000000000026 15.880000000000002 T T T
 15.8800000000000026 13.9200000000000017 15.880000000000002 T T T
 15.8800000000000026 15.8800000000000026 13.920000000000001 T T T
 13.9200000000000017 13.9200000000000017 17.840000000000003 T T T
 13.9200000000000017 17.8400000000000034 13.920000000000001 T T T
 17.8400000000000034 13.9200000000000017 13.920000000000001 T T T
