Au 
 1.0000000000000000
    28.1599999999999966    0.0000000000000000    0.0000000000000000
     0.0000000000000000   28.1599999999999966    0.0000000000000000
     0.0000000000000000    0.0000000000000000   28.1599999999999966
  43
Cartesian
 10.0000000000000000 12.0399999999999991 12.039999999999999   T   T   T
 12.0399999999999991 10.0000000000000000 12.039999999999999   T   T   T
 12.0399999999999991 12.0399999999999991 10.000000000000000   T   T   T
 10.0000000000000000 12.0399999999999991 16.120000000000001   T   T   T
 12.0399999999999991 10.0000000000000000 16.120000000000001   T   T   T
 12.0399999999999991 12.0399999999999991 14.080000000000000   T   T   T
 12.0399999999999991 12.0399999999999991 18.160000000000000   T   T   T
 10.0000000000000000 16.1200000000000010 12.039999999999999   T   T   T
 12.0399999999999991 14.0800000000000001 12.039999999999999   T   T   T
 12.0399999999999991 16.1200000000000010 10.000000000000000   T   T   T
 10.0000000000000000 14.0800000000000001 14.080000000000000   T   T   T
 10.0000000000000000 16.1200000000000010 16.120000000000001   T   T   T
 12.0399999999999991 14.0800000000000001 16.120000000000001   T   T   T
 12.0399999999999991 16.1200000000000010 14.080000000000000   T   T   T
 12.0399999999999991 16.1200000000000010 18.160000000000000   T   T   T
 12.0399999999999991 18.1600000000000001 12.039999999999999   T   T   T
 12.0399999999999991 18.1600000000000001 16.120000000000001   T   T   T
 14.0800000000000001 12.0399999999999991 12.039999999999999   T   T   T
 16.1200000000000010 10.0000000000000000 12.039999999999999   T   T   T
 16.1200000000000010 12.0399999999999991 10.000000000000000   T   T   T
 14.0800000000000001 10.0000000000000000 14.080000000000000   T   T   T
 14.0800000000000001 12.0399999999999991 16.120000000000001   T   T   T
 16.1200000000000010 10.0000000000000000 16.120000000000001   T   T   T
 16.1200000000000010 12.0399999999999991 14.080000000000000   T   T   T
 16.1200000000000010 12.0399999999999991 18.160000000000000   T   T   T
 14.0800000000000001 14.0800000000000001 10.000000000000000   T   T   T
 14.0800000000000001 16.1200000000000010 12.039999999999999   T   T   T
 16.1200000000000010 14.0800000000000001 12.039999999999999   T   T   T
 16.1200000000000010 16.1200000000000010 10.000000000000000   T   T   T
 14.0800000000000001 14.0800000000000001 14.080000000000000   T   T   T
 14.0800000000000001 16.1200000000000010 16.120000000000001   T   T   T
 16.1200000000000010 14.0800000000000001 16.120000000000001   T   T   T
 16.1200000000000010 16.1200000000000010 14.080000000000000   T   T   T
 14.0800000000000001 14.0800000000000001 18.160000000000000   T   T   T
 16.1200000000000010 16.1200000000000010 18.160000000000000   T   T   T
 16.1200000000000010 18.1600000000000001 12.039999999999999   T   T   T
 14.0800000000000001 18.1600000000000001 14.080000000000000   T   T   T
 16.1200000000000010 18.1600000000000001 16.120000000000001   T   T   T
 18.1600000000000001 12.0399999999999991 12.039999999999999   T   T   T
 18.1600000000000001 12.0399999999999991 16.120000000000001   T   T   T
 18.1600000000000001 16.1200000000000010 12.039999999999999   T   T   T
 18.1600000000000001 14.0800000000000001 14.080000000000000   T   T   T
 18.1600000000000001 16.1200000000000010 16.120000000000001   T   T   T
